NAME : 10_3_3_3_(05).dat
COMMENT : Henke, Speranza, Wäscher, 2015
TYPE : MCVRP
DIMENSION : 11
EDGE_WEIGHT_TYPE : DISTANCE_MATRIX
CAPACITY : 1000
VEHICLES : 2
PRODUCT TYPES : 3
COMPARTMENTS : 3
NODE_COORD_SECTION
1 50 50
2 25.31 29.27
3 43.1 37.61
4 89.3 69
5 17.04 0.8
6 72.63 86.85
7 6.63 1.39
8 32.72 85.34
9 11.29 51.64
10 46.17 45.8
11 49.91 2.28
DEMAND_SECTION
1 0 0 0
2 131 0 29
3 103 68 41
4 111 29 43
5 40 80 30
6 101 71 34
7 49 14 5
8 59 55 46
9 96 24 15
10 0 21 15
11 55 84 39
DEPOT_SECTION
1
EOF